; benchmark generated from python API
(set-info :status unknown)
(declare-fun S_2 () Real)
(declare-fun L_2 () Real)
(declare-fun A_2 () Real)
(declare-fun L_0 () Real)
(declare-fun S_0 () Real)
(declare-fun A_0 () Real)
(declare-fun S_3 () Real)
(declare-fun A_3 () Real)
(declare-fun S_4 () Real)
(declare-fun A_4 () Real)
(declare-fun S_5 () Real)
(declare-fun L_1 () Real)
(declare-fun A_1 () Real)
(declare-fun S_1 () Real)
(declare-fun A_5 () Real)
(assert
 (let (($x39 (>= L_0 0.0)))
 (let ((?x2411 (* (- (/ 1.0 3.0)) S_0)))
 (let ((?x499 (* (- 1.0) S_5)))
 (let ((?x483 (* (- 1.0) A_3)))
 (let (($x9967 (<= (+ A_3 (* (- 1.0) A_1) ?x499 S_2 L_1 (* (- 1.0) L_2)) 0.0)))
 (let (($x9703 (<= (+ (* (- (/ 3.0 2.0)) S_5) (* (/ 5.0 2.0) S_2) (* (- 1.0) S_0)) 0.0)))
 (let (($x1086 (<= (+ A_4 ?x499 (* (- 1.0) L_2)) 0.0)))
 (let (($x251449 (or $x1086 $x9703 $x9967 (<= (+ A_4 ?x483 ?x499 (* (/ 4.0 3.0) S_2) ?x2411) (- 5.0)))))
 (let (($x9297 (<= (+ ?x499 (* 2.0 S_2) (* (- 1.0) S_1)) 0.0)))
 (let (($x505018 (or $x1086 $x9297 $x9967 (<= (+ A_4 ?x483 ?x499 (* (/ 3.0 2.0) S_2) (* (- (/ 1.0 2.0)) S_1)) (- 5.0)))))
 (let ((?x597 (* (- 1.0) L_2)))
 (let ((?x491 (* (- 1.0) A_1)))
 (let (($x224688 (<= 0.0 (+ A_4 ?x483 A_2 ?x491 ?x499 S_2 L_1 ?x597))))
 (let ((?x1493 (* (- 3.0) L_2)))
 (let ((?x1119 (* (- 1.0) S_0)))
 (let ((?x4786 (* (- 3.0) S_5)))
 (let ((?x655 (* 3.0 A_2)))
 (let ((?x4790 (* (- 3.0) A_3)))
 (let ((?x4791 (* 3.0 A_4)))
 (let (($x99232 (<= (+ ?x4791 ?x4790 ?x655 ?x4786 S_2 ?x1119 ?x1493) 0.0)))
 (let (($x11283 (<= (+ A_3 A_2 ?x491 ?x499 (* (- 2.0) L_2) L_1) 0.0)))
 (let ((?x2955 (* (- (/ 1.0 2.0)) S_0)))
 (let ((?x1711 (* (/ 1.0 2.0) S_1)))
 (let ((?x3627 (+ A_4 ?x483 A_2 ?x499 ?x597 ?x1711 ?x2955)))
 (let (($x40030 (<= (+ A_2 ?x499 ?x597 S_1 ?x1119) 0.0)))
 (let (($x34811 (<= (+ (* 2.0 A_3) (* (- 2.0) S_5) (* (- 2.0) L_2) S_1 ?x1119) 0.0)))
 (let (($x18647 (<= (+ (* (- (/ 2.0 3.0)) S_5) (* (/ 5.0 3.0) S_1) ?x1119) 0.0)))
 (let (($x510808 (or $x1086 $x18647 $x34811 $x40030 (<= ?x3627 (- 5.0)) (<= (+ A_4 ?x483 ?x499 (* 2.0 S_1) ?x1119) (- 5.0)))))
 (let ((?x521 (* (- 1.0) S_3)))
 (let ((?x487 (* (- 1.0) A_2)))
 (let ((?x479 (* (- 1.0) A_4)))
 (let ((?x2965 (* (/ 1.0 2.0) L_2)))
 (let ((?x7571 (* (/ 1.0 2.0) S_5)))
 (let ((?x610 (* (- 1.0) L_1)))
 (let ((?x2950 (* (- (/ 1.0 2.0)) A_2)))
 (let ((?x10638 (* (/ 1.0 2.0) A_3)))
 (let ((?x5531 (* (- (/ 1.0 2.0)) A_4)))
 (let (($x66 (= L_2 L_1)))
 (let (($x506829 (or $x66 (<= (+ ?x5531 ?x10638 ?x2950 A_1 ?x610 ?x7571 ?x521 ?x2965) 0.0) (<= (+ ?x479 A_3 ?x487 S_5 ?x521 S_0 L_2) 0.0))))
 (let (($x106714 (<= (+ (* (- 1.0) A_5) A_3 ?x487 S_5 (* (- (/ 1.0 2.0)) S_4) ?x1711 L_2) 0.0)))
 (let ((?x1118 (* 3.0 L_2)))
 (let ((?x2915 (* 2.0 S_5)))
 (let ((?x1116 (* (- 3.0) A_2)))
 (let ((?x3597 (* 2.0 A_3)))
 (let ((?x4371 (* (- 2.0) A_5)))
 (let ((?x1080 (* 2.0 L_2)))
 (let ((?x1105 (* (- 2.0) A_2)))
 (let ((?x475 (* (- 1.0) A_5)))
 (let (($x514347 (or $x66 (<= (+ ?x475 A_3 ?x1105 A_1 ?x610 S_5 ?x1080) (- 5.0)) (<= (+ ?x4371 ?x3597 ?x1116 ?x2915 S_0 ?x1118) (- 5.0)))))
 (let ((?x2952 (* (/ 3.0 2.0) L_2)))
 (let ((?x2958 (* (- (/ 3.0 2.0)) A_2)))
 (let ((?x89930 (+ ?x5531 ?x10638 ?x2958 A_1 ?x610 ?x7571 ?x2952)))
 (let (($x209344 (<= 0.0 (+ ?x597 L_1))))
 (let (($x510522 (or $x209344 (<= ?x89930 (- 5.0)) (<= (+ ?x479 A_3 ?x1105 S_5 S_0 ?x1080) (- 5.0)))))
 (let ((?x2416 (* (/ 2.0 3.0) S_0)))
 (let ((?x25836 (* (/ 5.0 3.0) L_2)))
 (let ((?x2409 (* (- (/ 2.0 3.0)) A_3)))
 (let (($x66379 (<= (+ A_4 ?x475 ?x483 ?x487 A_1 S_5 ?x1080 ?x610) 0.0)))
 (let (($x95993 (<= (+ ?x479 A_3 ?x487 S_5 (* (- 2.0) S_4) (* 2.0 S_2) L_2) 0.0)))
 (let ((?x3927 (* (- (/ 1.0 2.0)) S_4)))
 (let ((?x5699 (* (- (/ 1.0 2.0)) L_1)))
 (let ((?x5897 (* (/ 1.0 2.0) A_1)))
 (let (($x20924 (<= (+ ?x475 A_3 ?x487 S_5 (* (- (/ 1.0 3.0)) S_4) (* (/ 1.0 3.0) S_0) L_2) 0.0)))
 (let (($x506810 (or $x66 $x20924 (<= (+ ?x475 A_3 ?x487 ?x5897 ?x5699 S_5 ?x3927 L_2) 0.0))))
 (let ((?x1112 (* (- 2.0) L_2)))
 (let ((?x543 (* (- 1.0) S_1)))
 (let ((?x3998 (* (- 2.0) S_5)))
 (let ((?x1110 (* 2.0 A_2)))
 (let ((?x1378 (* (- 2.0) A_3)))
 (let ((?x3216 (* 2.0 A_4)))
 (let (($x523052 (or $x1086 $x9297 $x9967 (<= (+ ?x3216 ?x1378 ?x1110 ?x3998 S_2 ?x543 ?x1112) 0.0))))
 (let (($x518676 (or $x1086 $x9703 $x9967 (<= 0.0 (+ ?x491 (* (/ 2.0 3.0) S_2) (* (/ 1.0 3.0) S_0) L_1)) (not $x224688))))
 (let (($x21972 (<= (+ ?x3998 (* 3.0 S_3) (* (- 1.0) S_2)) 0.0)))
 (let (($x519212 (or $x1086 (<= (+ ?x3216 ?x1378 ?x1110 ?x3998 S_3 (* (- 1.0) S_2) ?x1112) 0.0) $x21972)))
 (let ((?x2545 (* (/ 1.0 2.0) S_0)))
 (let ((?x8815 (* (/ 1.0 2.0) S_2)))
 (let (($x192478 (or $x66 $x66379 (<= (+ A_4 ?x475 ?x483 ?x487 S_5 ?x1080 ?x8815 ?x2545) 0.0))))
 (let (($x85409 (<= (+ ?x479 A_3 ?x487 A_1 ?x610 S_5 (* (- 1.0) S_4) L_2) 0.0)))
 (let (($x521282 (or $x66 (<= (+ ?x479 A_3 ?x487 S_5 (* (- (/ 2.0 3.0)) S_4) ?x2416 L_2) 0.0) $x85409)))
 (let (($x3239 (<= (+ A_1 (* (- 1.0) S_2) ?x610) 0.0)))
 (let (($x512998 (or $x66 $x3239 (<= (+ ?x475 A_3 ?x487 S_5 (* (- 1.0) S_2) S_0 L_2) 0.0))))
 (let (($x519694 (or $x66 $x3239 (<= (+ ?x5531 ?x10638 ?x2950 ?x7571 (* (- 1.0) S_2) S_0 ?x2965) 0.0))))
 (let (($x501092 (or $x66 (<= (+ ?x483 ?x487 A_1 ?x1080 S_4 ?x610) (- 5.0)) (<= (+ ?x1378 ?x487 ?x1118 (* 2.0 S_4) S_0) (- 5.0)))))
 (let (($x512772 (or $x66 (<= (+ ?x479 A_3 ?x487 S_5 (* (- 1.0) S_4) S_1 L_2) 0.0))))
 (let (($x518513 (or $x66 (<= (+ ?x475 A_3 ?x487 A_1 ?x610 S_5 ?x521 L_2) 0.0) (<= (+ ?x4371 ?x3597 ?x1105 ?x2915 ?x521 S_0 ?x1080) 0.0))))
 (let ((?x5828 (* (- (/ 1.0 2.0)) A_5)))
 (let ((?x5610 (* (/ 1.0 2.0) A_4)))
 (let (($x515542 (or $x66 (<= (+ A_4 ?x475 ?x487 S_5 ?x521 S_0 L_2) 0.0) (<= (+ ?x5610 ?x5828 ?x2950 A_1 ?x610 ?x7571 ?x521 ?x2965) 0.0))))
 (let (($x21952 (<= (+ (* (- 4.0) S_5) (* 5.0 S_3) ?x1119) 0.0)))
 (let ((?x1553 (* (- 4.0) L_2)))
 (let ((?x17420 (* (- 4.0) S_5)))
 (let ((?x1550 (* 4.0 A_2)))
 (let ((?x19305 (* (- 4.0) A_3)))
 (let ((?x15187 (* 4.0 A_4)))
 (let ((?x10644 (* (- (/ 1.0 2.0)) A_3)))
 (let ((?x49998 (+ ?x10644 ?x491 ?x7571 ?x2965 S_0 L_1)))
 (let (($x214515 (<= 0.0 ?x49998)))
 (let (($x214516 (not $x214515)))
 (let (($x52882 (<= (+ (* (- (/ 2.0 3.0)) A_1) (* (/ 2.0 3.0) L_1) (* (- (/ 1.0 3.0)) S_5) S_2) 0.0)))
 (let (($x516936 (or $x1086 $x9967 $x52882 (<= (+ A_4 ?x483 A_2 ?x491 L_1 ?x499 S_2 ?x597) 0.0))))
 (let (($x517227 (or $x66 $x3239 (<= (+ ?x479 A_3 ?x487 S_4 (* (- 1.0) S_2) S_0 L_2) 0.0))))
 (let (($x102056 (<= (+ ?x479 A_3 ?x491 S_5 (* (- 3.0) S_4) (* 3.0 S_2) L_1) 0.0)))
 (let (($x1092 (<= (+ A_3 ?x597 (* (- 1.0) S_4)) 0.0)))
 (let (($x56 (= L_1 L_0)))
 (let (($x502701 (or $x1086 $x9967 $x52882 (<= (+ A_4 ?x483 ?x491 L_1 ?x499 (* 2.0 S_2)) (- 5.0)))))
 (let (($x208982 (<= (+ ?x3216 ?x1378 ?x1110 A_1 ?x3998 ?x1112 ?x1119 ?x610) (- 5.0))))
 (let (($x25542 (<= (+ ?x3216 ?x1378 (* 2.0 A_1) ?x3998 S_3 ?x1119 (* (- 2.0) L_1)) 0.0)))
 (let ((?x5324 (* (/ 1.0 2.0) L_1)))
 (let ((?x532 (* (- 1.0) S_2)))
 (let ((?x5330 (* (- (/ 1.0 2.0)) A_1)))
 (let (($x9306 (<= (+ (* 3.0 A_3) ?x4786 ?x1493 S_2 ?x1119) 0.0)))
 (let (($x4100 (<= (+ A_4 ?x483 A_2 A_1 ?x499 ?x597 ?x543 ?x610) 0.0)))
 (let (($x1128 (<= (+ A_4 ?x483 ?x487 A_1 L_2 ?x610) 0.0)))
 (let (($x21582 (<= (+ A_4 ?x483 A_1 ?x499 S_1 ?x1119 ?x610) 0.0)))
 (let ((?x1107 (* (- 2.0) L_1)))
 (let ((?x1106 (* 2.0 A_1)))
 (let (($x4682 (<= (+ ?x3216 ?x1378 ?x1110 ?x1106 ?x3998 ?x1112 ?x532 ?x1119 ?x1107) 0.0)))
 (let (($x506604 (or $x56 (<= (+ ?x5531 ?x10638 ?x5330 (* (/ 1.0 2.0) S_4) ?x532 S_0 ?x5324) 0.0))))
 (let (($x184375 (or $x56 (<= (+ A_4 ?x475 ?x491 S_5 (* (- 1.0) S_4) S_0 L_1) 0.0))))
 (let (($x519526 (or $x66 $x66379 (<= (+ A_4 ?x475 ?x1378 ?x487 S_5 ?x1118 S_4 S_0) 0.0))))
 (let (($x237535 (or $x66 (<= (+ ?x487 (* (/ 1.0 4.0) S_5) (* (/ 3.0 4.0) S_1) L_2) (- 5.0)))))
 (let ((?x25901 (* (/ 4.0 3.0) L_1)))
 (let ((?x8052 (* (/ 1.0 3.0) S_5)))
 (let ((?x25895 (* (- (/ 4.0 3.0)) A_1)))
 (let ((?x2414 (* (/ 1.0 3.0) A_3)))
 (let ((?x9532 (* (- (/ 1.0 3.0)) A_4)))
 (let (($x212256 (<= (+ ?x5828 ?x10638 (* (- (/ 3.0 2.0)) A_1) ?x7571 S_0 (* (/ 3.0 2.0) L_1)) (- 5.0))))
 (let (($x4554 (<= (+ A_4 ?x483 A_2 A_1 (* (- 1.0) A_0) ?x499 ?x597 ?x610 L_0) 0.0)))
 (let (($x211051 (<= 0.0 (+ A_4 ?x483 ?x487 A_1 ?x610 L_2))))
 (let (($x211052 (not $x211051)))
 (let (($x27873 (<= (+ ?x9532 ?x2414 (* (- (/ 1.0 3.0)) A_1) ?x8052 ?x532 S_0 (* (/ 1.0 3.0) L_1)) 0.0)))
 (let ((?x9540 (* (/ 2.0 3.0) L_1)))
 (let ((?x5950 (* (/ 2.0 3.0) S_5)))
 (let ((?x9554 (* (- (/ 2.0 3.0)) A_1)))
 (let ((?x2405 (* (/ 2.0 3.0) A_3)))
 (let ((?x9562 (* (- (/ 2.0 3.0)) A_4)))
 (let (($x2060 (<= (+ A_2 ?x597 ?x521) 0.0)))
 (let ((?x5578 (+ A_3 ?x491 ?x499 ?x597 S_2 L_1)))
 (let (($x209813 (<= ?x5578 (- 5.0))))
 (let (($x203140 (<= (+ ?x491 (* (- (/ 1.0 2.0)) S_5) (* (/ 3.0 2.0) S_2) L_1) (- 5.0))))
 (let (($x214839 (<= (- 5.0) (+ A_4 ?x1378 A_2))))
 (let (($x515040 (or $x56 $x1086 $x203140 $x214839 (not (<= (- 5.0) (+ ?x10644 ?x5330 S_2 ?x5324 ?x2965))))))
 (let (($x513121 (or $x56 $x1128 (<= (+ A_4 A_3 ?x491 ?x3998 ?x1112 S_2 L_1) 0.0) $x203140 (not (<= (- 5.0) (+ ?x479 A_3 A_2 ?x491 ?x597 L_1))))))
 (let (($x513971 (or $x56 $x1086 $x11283 $x203140 (<= (+ ?x5610 ?x10644 ?x5330 (* (- (/ 1.0 2.0)) S_5) S_2 ?x5324) (- 5.0)))))
 (let (($x509953 (or $x1086 $x9297 $x9967 (<= (+ A_4 ?x483 A_1 ?x499 S_2 ?x543 ?x610) 0.0))))
 (let ((?x5327 (* (- (/ 3.0 2.0)) L_1)))
 (let ((?x9799 (* (- (/ 3.0 2.0)) S_5)))
 (let ((?x5349 (* (/ 3.0 2.0) A_1)))
 (let ((?x8768 (* (- (/ 3.0 2.0)) A_3)))
 (let ((?x5599 (* (/ 3.0 2.0) A_4)))
 (let (($x29311 (<= (+ ?x5599 ?x8768 ?x5349 ?x9799 S_3 ?x543 ?x5327) 0.0)))
 (let (($x21968 (<= (+ ?x4786 (* 4.0 S_3) ?x543) 0.0)))
 (let (($x236918 (or $x66 (<= (+ ?x5610 ?x5828 ?x2958 A_1 ?x610 ?x7571 ?x2952) (- 5.0)) (<= (+ A_4 ?x475 ?x1105 S_5 S_0 ?x1080) (- 5.0)))))
 (let (($x125763 (<= (+ A_4 ?x475 ?x487 ?x491 S_5 L_2 ?x532 (* 2.0 S_0) L_1) 0.0)))
 (let (($x70470 (<= (+ A_4 ?x475 ?x491 S_5 (* (- 3.0) S_4) (* 3.0 S_2) L_1) 0.0)))
 (let (($x208093 (<= (+ A_4 ?x483 ?x499 S_3) (- 5.0))))
 (let (($x236316 (or $x66 $x1086 $x208093 (<= (+ ?x487 ?x499 (* 2.0 S_3) L_2) (- 5.0)))))
 (let ((?x7533 (* (- (/ 1.0 2.0)) S_5)))
 (let ((?x26353 (+ ?x2950 ?x7533 ?x2965 S_3)))
 (let (($x26301 (<= ?x26353 0.0)))
 (let ((?x4728 (* 3.0 S_1)))
 (let (($x222524 (<= (+ A_4 ?x483 (* (- 2.0) A_0) ?x499 ?x4728 (* 2.0 L_0)) (- 5.0))))
 (let (($x210311 (not (<= 0.0 (+ ?x479 A_3 (* (- 1.0) A_0) S_1 L_0)))))
 (let ((?x1142 (* (- 1.0) A_0)))
 (let ((?x3133 (+ A_4 ?x483 A_2 ?x1142 ?x499 ?x597 S_1 L_0)))
 (let (($x208843 (<= ?x3133 (- 5.0))))
 (let (($x40134 (<= (+ (* (/ 1.0 2.0) A_2) ?x1142 ?x7533 (* (- (/ 1.0 2.0)) L_2) S_1 L_0) 0.0)))
 (let (($x23410 (<= (+ ?x1142 (* (- (/ 1.0 3.0)) S_5) (* (/ 4.0 3.0) S_1) L_0) 0.0)))
 (let (($x235834 (or $x66 (<= (+ (* (- 2.0) A_4) ?x487 ?x2915 ?x1118 S_0) (- 5.0)) (<= (+ ?x479 ?x487 A_1 S_5 ?x1080 ?x610) (- 5.0)))))
 (let (($x177976 (or $x56 (<= (+ ?x479 A_3 ?x491 S_5 (* (- 1.0) S_4) S_0 L_1) 0.0))))
 (let ((?x9530 (* (/ 1.0 3.0) L_1)))
 (let ((?x9556 (* (- (/ 1.0 3.0)) A_1)))
 (let ((?x5597 (* (- (/ 1.0 3.0)) A_5)))
 (let ((?x9566 (* (/ 1.0 3.0) A_4)))
 (let (($x515480 (or $x1086 $x2060 $x9703 (<= 0.0 (+ ?x483 ?x7571 (* (/ 1.0 2.0) S_3) L_2)) $x211052)))
 (let (($x107843 (<= (+ ?x479 A_3 ?x487 ?x491 S_5 L_2 ?x532 (* 2.0 S_0) L_1) 0.0)))
 (let (($x25789 (<= (+ (* (/ 2.0 3.0) A_4) (* (- (/ 2.0 3.0)) A_5) ?x9554 ?x5950 ?x521 S_0 ?x9540) 0.0)))
 (let ((?x7242 (* (/ 3.0 2.0) L_1)))
 (let ((?x510 (* (- 1.0) S_4)))
 (let ((?x10018 (* (/ 3.0 2.0) S_5)))
 (let ((?x7241 (* (- (/ 3.0 2.0)) A_1)))
 (let ((?x14131 (* (/ 3.0 2.0) A_3)))
 (let (($x515862 (or $x56 (<= (+ (* (- (/ 3.0 2.0)) A_5) ?x14131 ?x7241 ?x10018 ?x510 S_0 ?x7242) 0.0))))
 (let (($x4494 (<= (+ A_4 ?x483 ?x1110 A_1 ?x499 ?x1112 ?x510 ?x1119 ?x610) 0.0)))
 (let (($x505321 (or $x56 (<= (+ ?x5531 ?x10638 ?x7241 (* (/ 1.0 2.0) S_4) S_0 ?x7242) (- 5.0)))))
 (let (($x504851 (or $x56 (<= (+ ?x10638 ?x5330 ?x532 S_0 ?x5324 (* (- (/ 1.0 2.0)) L_2)) 0.0) (not (<= 0.0 (+ ?x479 L_2 S_4))))))
 (let (($x249636 (or $x1086 $x2060 (<= (+ A_3 ?x597 (* (- 2.0) S_3) S_1) 0.0) $x18647 $x21582)))
 (let ((?x6676 (* (- (/ 2.0 3.0)) A_5)))
 (let ((?x9573 (* (/ 2.0 3.0) A_4)))
 (let (($x232096 (or $x66 (<= (+ ?x9573 ?x6676 ?x483 (* (- (/ 2.0 3.0)) A_2) S_5 ?x25836 ?x2416) 0.0) $x66379)))
 (let (($x10637 (<= (+ ?x5599 ?x8768 ?x5349 ?x9799 S_2 ?x1119 ?x5327) 0.0)))
 (let (($x21997 (<= (+ ?x1142 ?x4786 (* 4.0 S_3) L_0) 0.0)))
 (let (($x506527 (or $x1086 $x4554 $x21997 (<= (+ ?x5599 ?x8768 ?x5349 ?x1142 ?x9799 S_3 ?x5327 L_0) 0.0))))
 (let (($x215972 (<= (+ (* (/ 1.0 3.0) A_1) (* (- (/ 1.0 3.0)) L_1) (* (- (/ 1.0 3.0)) S_5)) (- 5.0))))
 (let ((?x5941 (+ ?x491 S_0 L_1)))
 (let (($x209299 (<= (- 5.0) ?x5941)))
 (let (($x209298 (not $x209299)))
 (let (($x26242 (<= (+ (* (/ 1.0 2.0) A_2) ?x7533 (* (- (/ 1.0 2.0)) L_2)) (- 5.0))))
 (let (($x11388 (<= (+ A_3 ?x499 ?x597) (- 5.0))))
 (let (($x506342 (or $x56 (<= (+ ?x491 (* (/ 1.0 5.0) S_5) (* (/ 4.0 5.0) S_0) L_1) (- 5.0)))))
 (let (($x115922 (<= (+ A_4 ?x475 A_2 ?x491 S_5 ?x597 (* (- 2.0) S_4) S_1 L_1) 0.0)))
 (let (($x79172 (<= (+ A_4 ?x475 ?x491 S_5 (* (- (/ 3.0 2.0)) S_4) (* (/ 3.0 2.0) S_1) L_1) 0.0)))
 (let (($x96581 (<= (+ A_4 ?x483 A_2 ?x5330 ?x5324 ?x499 (* (/ 1.0 2.0) S_3) ?x597) 0.0)))
 (let (($x34783 (<= (+ ?x9556 ?x9530 (* (- (/ 2.0 3.0)) S_5) S_3) 0.0)))
 (let ((?x1113 (* 2.0 L_1)))
 (let ((?x4457 (* 2.0 S_0)))
 (let ((?x1111 (* (- 2.0) A_1)))
 (let (($x230965 (or $x56 (<= (+ ?x479 A_3 ?x487 ?x1111 S_5 L_2 ?x4457 ?x1113) (- 5.0)))))
 (let (($x10088 (<= (+ ?x3597 ?x1142 ?x3998 ?x1112 S_2 L_0) 0.0)))
 (let (($x9975 (<= (+ ?x1142 ?x499 (* 2.0 S_2) L_0) 0.0)))
 (let (($x517312 (or $x1086 $x9975 $x10088 (<= (+ ?x3216 ?x1378 ?x1110 ?x1142 ?x3998 S_2 ?x1112 L_0) 0.0))))
 (let (($x95182 (<= (+ A_4 ?x475 ?x487 S_5 (* (- 2.0) S_4) (* 2.0 S_2) L_2) 0.0)))
 (let (($x18134 (<= (+ ?x475 A_3 ?x491 S_5 (* (- 2.0) S_3) (* 2.0 S_1) L_1) 0.0)))
 (let (($x511503 (or $x56 $x2060 (<= (+ A_4 ?x475 ?x491 S_5 (* (- 3.0) S_3) ?x4728 L_1) 0.0))))
 (let (($x130796 (<= (+ (* (- 2.0) A_4) ?x3597 ?x1105 (* 2.0 S_4) ?x521 S_0 ?x1080) 0.0)))
 (let (($x518035 (or $x66 (<= (+ ?x479 A_3 ?x487 A_1 ?x610 S_4 ?x521 L_2) 0.0) $x130796)))
 (let (($x226542 (<= (+ (* (- 2.0) A_4) ?x3597 ?x1116 (* 2.0 S_4) S_0 ?x1118) (- 5.0))))
 (let (($x513629 (or $x66 (<= (+ ?x479 A_3 ?x1105 A_1 ?x610 S_4 ?x1080) (- 5.0)) $x226542)))
 (let (($x8488 (<= (+ ?x3597 ?x3998 ?x1112 S_2 ?x543) 0.0)))
 (let (($x449 (not (<= 0.0 (+ ?x610 L_0)))))
 (let (($x229884 (or $x449 $x1086 $x8488 $x9297 (not (<= 0.0 (+ ?x483 A_1 S_2 ?x543 L_2 (* (- 1.0) L_0)))))))
 (let (($x509231 (or $x66 (<= (+ A_4 ?x475 ?x487 A_1 ?x610 S_5 ?x510 L_2) 0.0) (<= (+ A_4 ?x475 ?x487 S_5 (* (- (/ 2.0 3.0)) S_4) ?x2416 L_2) 0.0))))
 (let (($x49978 (<= (+ A_4 ?x475 ?x483 ?x491 S_5 L_2 ?x521 (* 2.0 S_1) L_1) 0.0)))
 (let (($x200533 (<= (- 5.0) (+ ?x2950 ?x2965 ?x2545))))
 (let (($x246527 (or $x1086 $x11388 $x200533 (<= (+ (* (- (/ 1.0 4.0)) S_5) (* (/ 1.0 4.0) S_0)) (- 5.0)) $x215972)))
 (let (($x22816 (<= (+ ?x5610 ?x10644 ?x5897 ?x1142 ?x7533 S_1 ?x5699 L_0) 0.0)))
 (let (($x11714 (<= (+ A_3 ?x1142 ?x499 ?x597 S_1 L_0) 0.0)))
 (let (($x212096 (<= (+ (* (- (/ 1.0 3.0)) S_5) (* (/ 1.0 3.0) S_1)) (- 5.0))))
 (let (($x228785 (or $x56 (<= (+ ?x2950 ?x491 ?x2965 (* (/ 1.0 2.0) S_4) S_0 L_1) (- 5.0)))))
 (let (($x243331 (or $x1086 $x4554 $x11714 $x22816 $x23410 (<= (+ ?x1110 ?x1142 ?x499 ?x1112 L_0) 0.0))))
 (let (($x253942 (or $x1086 (<= (+ ?x4791 ?x4790 ?x655 ?x1142 ?x4786 S_3 ?x1493 L_0) 0.0) $x21997)))
 (let (($x138443 (or $x56 (<= (+ ?x475 A_3 ?x487 ?x491 S_5 L_2 S_0 L_1) 0.0))))
 (let (($x3480 (<= (+ A_4 ?x483 A_1 ?x499 S_3 ?x532 ?x610) 0.0)))
 (let (($x261944 (or $x56 (<= (+ A_4 ?x475 ?x487 ?x1111 S_5 L_2 ?x4457 ?x1113) (- 5.0)))))
 (let (($x226510 (or $x66 (<= (+ ?x487 L_2 (* (/ 2.0 3.0) S_3) (* (/ 1.0 3.0) S_0)) (- 5.0)) (<= (+ ?x1105 A_1 ?x1080 S_3 ?x610) (- 10.0)))))
 (let ((?x9730 (* (/ 3.0 2.0) S_2)))
 (let (($x217619 (<= (+ A_4 ?x483 (* (- (/ 1.0 2.0)) A_0) ?x499 ?x9730 (* (/ 1.0 2.0) L_0)) (- 5.0))))
 (let (($x246005 (or $x1086 $x9975 $x10088 (<= (+ A_4 ?x483 A_1 ?x1142 ?x499 S_2 ?x610 L_0) 0.0))))
 (let (($x219041 (<= (+ (* (- (/ 1.0 3.0)) A_2) ?x491 ?x8052 (* (/ 1.0 3.0) L_2) S_0 L_1) (- 5.0))))
 (let (($x24579 (<= (+ ?x1550 (* (- 4.0) A_1) ?x499 S_0 (* 4.0 L_1) ?x1553) 0.0)))
 (let (($x10192 (<= (+ A_4 ?x483 ?x1110 ?x491 ?x499 L_1 ?x1112) 0.0)))
 (let (($x1146 (not $x1128)))
 (let (($x209741 (<= (+ ?x487 (* (/ 3.0 4.0) A_1) (* (- (/ 3.0 4.0)) L_1) (* (/ 1.0 4.0) S_5) L_2) (- 5.0))))
 (let (($x226110 (or $x66 $x209741 (<= (+ ?x487 (* (/ 2.0 5.0) S_5) (* (/ 3.0 5.0) S_0) L_2) (- 5.0)))))
 (let (($x27523 (<= (+ ?x475 A_3 ?x491 S_5 (* (- 2.0) S_4) (* 2.0 S_2) L_1) 0.0)))
 (let (($x222268 (<= (+ ?x487 (* (/ 2.0 3.0) A_1) (* (- (/ 2.0 3.0)) L_1) (* (/ 1.0 3.0) S_4) L_2) (- 5.0))))
 (let (($x1122 (<= (+ ?x1116 (* 3.0 A_1) ?x1118 S_2 ?x1119 (* (- 3.0) L_1)) 0.0)))
 (let (($x3241 (<= (+ ?x479 A_2 S_5 ?x510) 0.0)))
 (let (($x116530 (or $x1092 $x3241 (<= (+ ?x479 S_5 L_2 (* (- (/ 1.0 3.0)) S_4) (* (/ 1.0 3.0) S_0)) 0.0) (<= (+ ?x479 ?x5897 S_5 L_2 ?x3927 ?x5699) 0.0))))
 (let (($x2165 (<= (+ ?x655 (* (- 3.0) A_1) ?x499 S_1 (* 3.0 L_1) ?x1493) 0.0)))
 (let (($x224877 (or $x56 $x1086 $x208093 (<= (+ ?x491 ?x3998 (* 3.0 S_3) L_1) (- 5.0)))))
 (let (($x7537 (<= (+ (* (/ 3.0 4.0) A_1) (* (- (/ 3.0 4.0)) L_1) (* (/ 1.0 4.0) S_5) ?x521) 0.0)))
 (let (($x114772 (or $x2060 $x7537 (<= (+ (* (/ 2.0 5.0) S_5) ?x521 (* (/ 3.0 5.0) S_0)) 0.0))))
 (let (($x34692 (<= (+ ?x1110 ?x1111 ?x499 S_2 ?x1113 ?x1112) 0.0)))
 (let (($x21399 (<= (+ A_4 ?x483 ?x7533 ?x8815) 0.0)))
 (let (($x522600 (or $x56 $x21399 $x34692 (not (<= 0.0 (+ A_3 ?x1105 A_1 L_2 ?x610))))))
 (let (($x208826 (<= (+ A_2 ?x597 ?x510) (- 5.0))))
 (let (($x264408 (or $x66 (<= (+ ?x487 L_2 S_0) (- 15.0)) (<= (+ ?x487 A_1 L_2 ?x610) (- 10.0)))))
 (let (($x225186 (or $x56 $x2060 (<= (+ ?x479 A_3 ?x491 S_5 (* (- 3.0) S_3) ?x4728 L_1) 0.0))))
 (let (($x914 (not $x56)))
 (let (($x249039 (or $x66 $x914 (<= (+ ?x5531 ?x10638 ?x2958 A_1 ?x7571 ?x2952 (* (- 1.0) L_0)) 0.0))))
 (let (($x223268 (or $x56 (<= (+ ?x491 (* (/ 1.0 4.0) S_4) (* (/ 3.0 4.0) S_0) L_1) (- 5.0)))))
 (let ((?x1571 (* 6.0 L_2)))
 (let ((?x1570 (* (- 6.0) L_1)))
 (let ((?x1569 (* 6.0 A_1)))
 (let ((?x1568 (* (- 6.0) A_2)))
 (let (($x218383 (or $x66 (<= (+ A_4 ?x475 ?x483 ?x1105 A_1 S_5 ?x1118 S_2 ?x610) 0.0))))
 (let (($x222281 (or $x66 (<= (+ ?x487 (* (/ 1.0 3.0) S_4) (* (/ 2.0 3.0) S_1) L_2) (- 5.0)))))
 (let (($x206218 (or $x3239 (<= (+ ?x487 S_5 L_2 (* (- 3.0) S_2) (* 3.0 S_0)) 0.0))))
 (let ((?x1099 (+ ?x487 A_1 L_2 ?x610)))
 (let (($x405 (<= ?x1099 (- 5.0))))
 (let (($x92948 (<= (+ (* (/ 2.0 3.0) A_1) (* (- (/ 2.0 3.0)) L_1) (* (/ 1.0 3.0) S_4) ?x521) 0.0)))
 (let (($x211123 (not (<= (- 5.0) (+ ?x479 A_3)))))
 (let (($x209542 (<= (+ ?x7533 ?x8815) (- 5.0))))
 (let (($x98586 (or $x2060 (<= (+ ?x483 L_2 S_4 (* (- (/ 1.0 2.0)) S_3) ?x2545) 0.0) (<= (+ ?x483 A_1 L_2 S_4 ?x521 ?x610) 0.0))))
 (let (($x524616 (or $x2060 (<= (+ ?x483 ?x1106 S_5 L_2 (* (- 2.0) S_3) ?x1107) 0.0) $x214516)))
 (let (($x221048 (or $x1092 $x208826 (<= (+ (* (- (/ 1.0 3.0)) S_4) (* (/ 1.0 3.0) S_0)) (- 5.0)) $x209299)))
 (let (($x521860 (or $x66 (<= (+ A_4 ?x483 ?x1105 A_1 ?x1080 S_2 ?x610) 0.0) (not (<= 0.0 (+ ?x475 S_5 L_2))))))
 (let (($x74505 (or $x1092 (<= (+ A_2 ?x1142 ?x597 ?x510 S_1 L_0) 0.0) (<= (+ ?x1142 ?x3927 (* (/ 3.0 2.0) S_1) L_0) 0.0))))
 (let ((?x1559 (* 5.0 L_2)))
 (let ((?x1558 (* (- 5.0) L_1)))
 (let ((?x1557 (* 5.0 A_1)))
 (let ((?x1556 (* (- 5.0) A_2)))
 (let (($x25576 (<= (+ ?x1110 S_5 ?x1112 (* (- 3.0) S_4)) 0.0)))
 (let (($x91812 (or $x1092 (<= (+ ?x5897 ?x5699 ?x7571 ?x510) 0.0) (<= (+ S_5 (* (- (/ 5.0 3.0)) S_4) ?x2416) 0.0) $x25576)))
 (let (($x210479 (<= 0.0 (+ A_3 ?x1105 A_1 L_2 ?x610))))
 (let (($x72973 (or $x2060 (<= (+ ?x483 S_5 L_2 (* (- 2.0) S_3) (* 2.0 S_1)) 0.0))))
 (let ((?x1547 (* 4.0 L_2)))
 (let ((?x1546 (* (- 4.0) L_1)))
 (let ((?x1545 (* 4.0 A_1)))
 (let ((?x1450 (* (- 4.0) A_2)))
 (let (($x577 (<= (+ A_2 ?x491 ?x499 S_3 L_1 ?x597) 0.0)))
 (let (($x29750 (<= (+ ?x479 A_3 ?x491 S_5 (* (- (/ 3.0 2.0)) S_4) (* (/ 3.0 2.0) S_1) L_1) 0.0)))
 (let (($x3321 (<= (+ ?x479 A_3 A_2 ?x491 S_5 ?x597 (* (- 2.0) S_4) S_1 L_1) 0.0)))
 (let (($x262316 (or $x56 $x3321 $x29750 (<= 0.0 (+ ?x483 A_1 L_2 S_4 ?x543 ?x610)))))
 (let (($x508975 (or $x56 (<= (+ A_4 ?x475 ?x483 ?x491 S_5 L_2 S_0 L_1) 0.0))))
 (let (($x209348 (not $x209344)))
 (let (($x9353 (<= (+ ?x479 S_5 L_2 (* (- (/ 1.0 2.0)) S_3) ?x2545) 0.0)))
 (let (($x2008 (<= (+ ?x1116 (* 3.0 A_1) S_3 ?x543 (* (- 3.0) L_1) ?x1118) 0.0)))
 (let (($x31090 (or $x56 (<= (+ ?x479 A_3 ?x487 ?x491 L_2 S_4 S_0 L_1) 0.0))))
 (let (($x33375 (or $x1092 (<= (+ A_2 ?x597 ?x510 ?x1711 ?x2955) 0.0) (<= (+ ?x510 (* 2.0 S_1) ?x1119) 0.0))))
 (let (($x18269 (<= (+ ?x479 A_3 ?x491 S_4 (* (- 2.0) S_3) (* 2.0 S_1) L_1) 0.0)))
 (let (($x1778 (<= (+ ?x1116 (* 3.0 A_1) ?x1142 S_3 (* (- 3.0) L_1) ?x1118 L_0) 0.0)))
 (let (($x17918 (<= (+ ?x655 (* (- 3.0) A_1) ?x1493 ?x510 S_0 (* 3.0 L_1)) 0.0)))
 (let (($x261418 (or $x1092 (<= (+ ?x1142 (* (- 2.0) S_4) (* 3.0 S_2) L_0) 0.0))))
 (let (($x1827 (<= (+ ?x1116 (* 3.0 A_1) S_4 ?x532 (* (- 3.0) L_1) ?x1118) 0.0)))
 (let (($x1480 (<= (+ ?x1116 (* 3.0 A_1) S_5 ?x521 (* (- 3.0) L_1) ?x1118) 0.0)))
 (let (($x509391 (or $x66 (<= (+ ?x1450 (* 3.0 A_1) S_5 (* (- 3.0) L_1) ?x1547) (- 5.0)))))
 (let (($x128 (>= S_1 S_0)))
 (let (($x131 (>= S_2 S_1)))
 (let (($x134 (>= S_3 S_2)))
 (let (($x137 (>= S_4 S_3)))
 (let (($x140 (>= S_5 S_4)))
 (let (($x142 (>= A_1 A_0)))
 (let (($x143 (>= A_2 A_1)))
 (let (($x144 (>= A_3 A_2)))
 (let (($x145 (>= A_4 A_3)))
 (let (($x146 (>= A_5 A_4)))
 (and $x146 $x145 $x144 $x143 $x142 $x140 $x137 $x134 $x131 $x128 (or $x56 $x449) (or $x66 (<= (+ ?x487 L_2 S_2) (- 5.0))) (or $x66 $x405) (or $x66 (<= (+ ?x1105 ?x1106 ?x1142 ?x1080 S_2 ?x1107 L_0) 0.0)) (or $x66 (<= (+ ?x1105 ?x1106 ?x1080 S_2 ?x543 ?x1107) 0.0)) (or $x66 $x1122) (or $x66 (<= (+ ?x1105 ?x1106 S_5 ?x510 ?x1107 ?x1080) 0.0)) (or $x66 (<= (+ ?x1556 ?x1557 S_5 ?x543 ?x1558 ?x1559) 0.0)) $x509391 (or $x66 (<= (+ ?x1450 ?x1545 S_5 ?x532 ?x1546 ?x1547) 0.0)) (or $x66 $x1480) (or $x66 (<= (+ ?x1556 ?x1557 ?x1142 S_5 ?x1558 ?x1559 L_0) 0.0)) (or $x66 (<= (+ ?x1116 ?x1106 S_4 ?x1107 ?x1118) (- 5.0))) (or $x66 $x1827) (or $x66 (<= (+ ?x1450 ?x1545 ?x1142 S_4 ?x1546 ?x1547 L_0) 0.0)) (or $x66 (<= (+ ?x1450 ?x1545 S_4 ?x543 ?x1546 ?x1547) 0.0)) (or $x56 (<= (+ ?x491 S_1 L_1) (- 5.0))) (or $x66 $x209348) (or $x2060 (<= (+ ?x521 S_1) (- 5.0))) (or $x1092 (<= (+ S_5 (* (- 3.0) S_4) (* 2.0 S_2)) 0.0)) (or $x56 (<= (+ ?x479 ?x491 S_5 L_2 S_0 L_1) (- 5.0))) (<= (+ ?x475 S_5 L_2) 0.0) (<= (+ ?x491 S_1 L_1) 0.0) (or $x3239 (<= (+ ?x532 S_0) (- 5.0))) (or $x56 $x1092 (<= (+ A_2 ?x491 ?x510 S_2 L_1 ?x597) 0.0)) (or $x1092 (<= (+ ?x510 S_2) (- 5.0))) $x261418 (or $x66 (<= (+ ?x479 ?x487 A_1 S_5 ?x1080 ?x610) 0.0)) (or $x1092 (<= (+ ?x479 S_5 L_2 ?x510 S_2) 0.0)) (or $x56 $x1092 $x17918) (or $x66 $x1778) (or $x56 (<= (+ A_2 ?x491 ?x597 ?x532 S_0 L_1) 0.0)) (or $x56 (<= (+ A_2 ?x1111 ?x597 S_0 ?x1113) (- 5.0))) (or $x66 (<= (+ ?x479 A_3 ?x1105 A_1 S_4 ?x610 ?x1080) 0.0)) (or $x3239 (<= (+ ?x479 S_5 L_2 ?x532 S_0) 0.0)) (or $x66 (<= (+ ?x1105 A_1 S_3 ?x610 ?x1080) (- 5.0))) (or $x56 (<= (+ A_2 ?x491 ?x521 S_1 L_1 ?x597) 0.0)) (or $x56 $x2060 $x18269) (or $x56 (<= (+ ?x475 A_3 ?x491 S_5 ?x510 S_1 L_1) 0.0)) (or $x1092 $x3241 (<= (+ ?x479 S_5 L_2 ?x3927 ?x1711) 0.0)) (or $x66 (<= (+ ?x487 A_1 ?x1142 S_1 ?x610 L_2 L_0) 0.0)) $x33375 (or $x1092 (<= (+ (* (- 3.0) S_4) (* 4.0 S_2) ?x1119) 0.0)) (or $x1092 $x208826 (<= (+ ?x3927 ?x1711) (- 5.0))) (or $x56 $x1092 (<= (+ ?x1110 ?x1111 ?x510 S_1 ?x1113 ?x1112) 0.0)) (or $x56 (<= (+ ?x1111 S_2 S_0 ?x1113) (- 10.0))) (or $x2060 (<= (+ (* (- (/ 1.0 2.0)) S_3) ?x2545) (- 5.0)) $x209299) (or $x56 (<= ?x5941 (- 10.0))) (or $x2060 (<= (+ A_1 ?x521 ?x610) (- 5.0)) $x209298) (or $x2060 (<= (+ ?x1142 ?x521 (* 2.0 S_1) L_0) 0.0)) (or (<= (+ (* (/ 1.0 3.0) S_3) ?x532 ?x2416) 0.0) $x3239) (or $x3239 (<= (+ (* (/ 1.0 4.0) S_4) ?x532 (* (/ 3.0 4.0) S_0)) 0.0)) $x31090 (or $x1086 $x21972 $x208093) (or $x66 (<= (+ ?x1105 ?x1106 S_3 ?x532 ?x1107 ?x1080) 0.0)) (or $x66 $x2008) (or $x1086 (<= (+ ?x499 S_3) (- 5.0))) (or $x2060 (<= (+ (* (/ 1.0 4.0) S_5) ?x521 (* (/ 3.0 4.0) S_1)) 0.0)) (or $x66 (<= (+ ?x483 ?x1105 ?x1106 S_5 ?x1118 ?x1107) 0.0)) (or $x3239 (<= (+ ?x10644 ?x7571 ?x2965 ?x532 S_0) 0.0)) (or $x2060 (<= (+ ?x483 S_5 L_2 ?x521 S_0) 0.0) $x214515) (or $x1092 (<= (+ S_5 (* (- 2.0) S_4) S_1) 0.0) $x25576) (or $x2060 (<= (+ ?x483 L_2 S_4 ?x521 S_1) 0.0)) (or $x3239 (<= (+ ?x483 L_2 S_4 ?x532 S_0) 0.0)) (or $x1086 $x208093 $x21997) (or $x56 $x2060 $x9353) (or $x2060 $x9353 (<= (+ ?x479 A_1 S_5 L_2 ?x521 ?x610) 0.0)) (or $x56 (<= ?x49998 (- 5.0))) (or $x56 (<= (+ ?x483 ?x491 L_2 S_4 S_0 L_1) (- 5.0))) (or $x56 (<= (+ A_2 ?x491 (* (- (/ 1.0 2.0)) S_3) ?x2545) 0.0) $x209348) (or $x56 (<= (+ ?x1110 ?x1111 ?x1112 ?x521 S_0 ?x1113) 0.0)) (or $x66 (<= (+ ?x1105 ?x1106 S_4 ?x521 ?x1107 ?x1080) 0.0)) (or $x2060 (<= (+ S_4 (* (- 3.0) S_3) (* 2.0 S_1)) 0.0)) (or (<= (+ ?x475 A_3 ?x1105 A_1 S_5 ?x610 ?x1080) 0.0) $x209344) (or $x56 (<= (+ ?x475 A_3 ?x491 S_5 ?x521 S_0 L_1) 0.0)) (or $x56 (<= (+ ?x491 (* (/ 1.0 3.0) S_3) ?x2416 L_1) (- 5.0))) (or $x56 $x577 $x1086 $x208093) (or $x66 (<= (+ ?x483 ?x487 A_1 ?x1080 S_4 ?x610) 0.0)) $x508975 (or $x3239 (<= (+ ?x487 L_2 S_4 (* (- 2.0) S_2) ?x4457) 0.0)) (or $x1086 $x1128 $x2060 $x18647 $x34811) (or $x2060 (<= (+ (* (- 2.0) S_3) ?x4728 ?x1119) 0.0)) $x262316 (or $x56 $x577 $x1086 $x10192) (or $x66 (<= (+ ?x487 ?x1142 L_2 (* 2.0 S_1) L_0) (- 5.0))) (or $x66 (<= (+ ?x1450 ?x1545 S_3 ?x1119 ?x1546 ?x1547) 0.0)) (or $x66 (<= (+ ?x1105 ?x1106 S_1 ?x1119 ?x1107 ?x1080) 0.0)) $x72973 (or $x1086 $x21952 $x208093) (or $x1086 $x21968 $x208093) (or $x56 $x1086 $x1146 $x10192 $x34692) (or $x56 $x1128 (<= (+ A_3 ?x1105 A_1 ?x610 L_2) 0.0) $x34692) (or $x1086 $x1128 $x9975 $x10088) (or $x56 $x1092 (<= (+ ?x491 ?x510 (* 2.0 S_2) L_1) (- 5.0))) (or $x56 $x1086 $x11283 $x34692 $x210479) (or $x1092 (<= (+ (* (- 2.0) S_4) (* 3.0 S_2) ?x543) 0.0)) (or $x66 (<= (+ ?x487 L_2 S_1) (- 10.0))) (or $x1092 (<= (+ ?x5330 ?x5324 ?x3927 S_2) 0.0)) (or $x56 (<= (+ ?x487 ?x491 L_2 S_3 S_0 L_1) (- 5.0))) $x91812 (or $x66 (<= (+ ?x1556 ?x1557 S_4 ?x1119 ?x1558 ?x1559) 0.0)) $x74505 (or $x56 $x1128 (<= (+ A_3 ?x1105 A_1 ?x610 L_2) 0.0) $x24579) (or $x1086 $x208093 $x26301) (or $x3239 (<= (+ ?x487 L_2 S_3 ?x532 S_0) 0.0)) $x521860 $x221048 (or $x56 $x1128 (<= (+ A_3 ?x1105 A_1 ?x610 L_2) 0.0) $x2165) (or $x56 $x1086 $x1146 $x2165 $x10192) $x524616 $x98586 (or $x66 (<= (+ A_4 ?x475 ?x1116 ?x1106 S_5 ?x1107 ?x1118) 0.0)) (or $x2060 (<= (+ ?x479 S_5 L_2 ?x521 S_1) 0.0)) (or $x1086 $x209542 $x211123) (or $x1086 $x11388 $x209542) (or $x2060 (<= (+ (* (/ 1.0 2.0) S_4) ?x521 ?x2545) 0.0) $x92948) (or $x405 $x1086 $x11388 $x26242 (not $x200533)) (or $x3239 (<= (+ (* (/ 1.0 5.0) S_5) ?x532 (* (/ 4.0 5.0) S_0)) 0.0)) $x206218 $x222281 $x218383 (or (<= (+ ?x1568 ?x1569 S_5 ?x1119 ?x1570 ?x1571) 0.0) $x209344) (or $x66 (<= (+ ?x487 (* (/ 1.0 2.0) S_3) ?x1711 L_2) (- 5.0))) (or $x66 (<= (+ ?x487 L_2 (* (/ 3.0 2.0) S_1) ?x2955) (- 5.0))) $x223268 $x249039 $x225186 $x264408 (or $x1086 $x34783 $x208093) (or $x1092 (<= (+ ?x5897 ?x5699 ?x3927) (- 5.0)) $x208826 $x209298) $x522600 $x114772 (or $x1086 $x1128 $x4554 $x21997) (or $x1086 $x1128 $x4554 $x21952) (or $x1086 $x2060 $x211123 $x212096) $x224877 (or $x56 $x1128 $x2165 $x11283) (or $x56 $x1128 $x11283 $x24579) $x116530 (or $x1086 $x1122 $x4100 $x9703 $x10637 $x211051) (or $x1086 $x1122 $x2060 $x9703 $x10637 $x211051) (or $x1086 $x4554 $x9703 $x10088 $x10637) (or $x1086 (<= (+ ?x4791 ?x4790 ?x655 ?x4786 S_3 ?x543 ?x1493) 0.0) $x21968) (or $x1086 $x11714 $x22816 $x23410 $x40134 $x208843) (or $x66 (<= (+ ?x487 (* (/ 1.0 2.0) S_4) ?x2545 L_2) (- 5.0)) $x222268) (or $x56 $x1092 $x27523) $x226110 (or $x56 $x1086 $x1146 $x10192 $x24579) (or (<= ?x89930 0.0) $x209344) (or $x56 $x219041) $x246005 (or $x1086 $x9975 $x10088 $x217619) $x226510 $x261944 (or $x1086 $x4682 $x9703 $x10637 $x34811) (or $x1086 $x3480 $x26301) (or $x1086 $x1128 $x4554 $x26301) (or $x1086 $x26242 $x34811 $x212096) (or $x1086 $x3480 $x21972) $x138443 $x253942 (or $x56 $x1086 $x1146 $x2060 $x18647 $x21582) $x243331 (or $x56 (<= (+ ?x9566 ?x5597 ?x25895 ?x8052 S_0 ?x25901) (- 5.0))) (or $x66 (<= (+ ?x475 A_3 ?x487 S_5 ?x521 S_1 L_2) 0.0)) $x228785 (or $x1086 $x11388 $x26242 $x212096) (or $x66 (<= (+ ?x5610 ?x5828 ?x2950 ?x7571 ?x521 S_1 ?x2965) 0.0)) (or $x1086 $x1128 $x9306 $x9703 $x208982) (or $x1086 $x4554 $x11714 $x22816 $x23410 $x40134) $x246527 (or $x56 $x2060 $x49978) $x509231 (or $x1086 (<= ?x3133 0.0) $x23410 $x210311) (or $x1086 $x8488 $x9297 (<= 0.0 ?x5578)) $x229884 $x513629 (or $x66 (<= (+ ?x475 A_3 ?x487 S_5 ?x510 S_2 L_2) 0.0)) $x518035 (or $x1128 $x9297 $x9967) (or $x1086 $x1128 $x4100 $x26301) $x511503 (or $x56 $x2060 $x18134) (or $x66 $x1092 $x95182) $x517312 (or $x1086 $x18647 $x21582 $x34811 $x40030 $x208982) (or $x1086 $x9306 $x9703 $x10637 $x208982) $x230965 (or $x1086 $x34783 $x96581) (or $x56 $x1092 $x79172 $x115922) (or $x66 (<= (+ A_4 ?x475 ?x487 S_5 ?x510 S_1 L_2) 0.0)) $x506342 (or $x1086 $x11388 $x26242 $x209298 $x215972) $x506527 (or $x1086 $x21968 $x29311 (<= 0.0 ?x26353)) (or $x66 (<= (+ ?x5531 ?x10638 ?x2950 ?x7571 ?x521 S_1 ?x2965) 0.0)) (or $x1086 $x4494 $x9306 $x9703 $x10637) $x232096 (or $x66 (<= (+ ?x479 A_3 ?x487 S_4 ?x521 S_1 L_2) 0.0)) $x249636 $x504851 (or $x56 $x1086 $x21399 $x203140 $x209813) (or $x1086 $x4494 $x25542 $x26301) $x505321 (or $x1086 $x4494 $x21952 $x25542) (or $x1086 $x1128 $x21952 $x208982) (or $x1086 $x1092 $x4494 $x18647 $x21582 $x40030) $x515862 (or $x56 $x2060 $x25789) (or $x56 $x107843) (or $x1086 $x1128 $x2060 $x9306 $x9703) $x515480 (or $x66 (<= (+ ?x5610 ?x5828 ?x2958 ?x7571 S_1 ?x2952) (- 5.0))) (or $x66 (<= (+ ?x479 A_3 ?x1105 S_4 S_1 ?x1080) (- 5.0))) (or $x56 (<= (+ ?x9566 ?x5597 ?x9556 ?x8052 ?x532 S_0 ?x9530) 0.0)) $x177976 (or $x66 (<= (+ A_4 ?x475 ?x483 ?x487 S_5 ?x1080 S_1) 0.0)) (or $x1086 $x1128 $x26301 $x208982) (or $x56 (<= (+ ?x479 A_3 ?x491 S_4 ?x521 S_0 L_1) 0.0)) (or $x66 (<= (+ ?x483 ?x487 ?x1080 S_4 S_1) (- 5.0))) $x235834 (or $x1086 $x23410 $x40134 $x208843 $x210311 $x222524) (or $x1086 $x1128 $x4682 $x26301) (or $x1086 $x4554 $x18647 $x21582 $x34811 $x40030) (or $x1086 $x1128 $x8488 $x9297) $x236316 (or $x56 $x1092 $x70470) (or $x56 $x125763) $x236918 (or $x1086 $x4100 $x21968 $x29311) (or $x66 $x3239 (<= (+ ?x5610 ?x5828 ?x2950 ?x7571 ?x532 S_0 ?x2965) 0.0)) $x509953 (or $x1086 $x8488 $x9297 (not $x9967)) $x513971 $x513121 $x515040 (or $x56 $x1086 $x203140 $x209813 (not $x214839)) (or $x56 $x2060 (<= (+ ?x9562 ?x2405 ?x9554 ?x5950 ?x521 S_0 ?x9540) 0.0)) (or $x56 $x27873) (or $x4100 $x9306 $x9703 $x11283 $x211052) (or $x1086 $x4554 $x21952 $x25542) (or $x1086 $x4100 $x21952 $x25542) (or $x56 $x212256) (or $x56 (<= (+ ?x9532 ?x2414 ?x25895 ?x8052 S_0 ?x25901) (- 5.0))) $x237535 (or $x66 (<= (+ ?x10644 ?x487 ?x7571 ?x2952 S_1) (- 5.0))) (or $x66 $x214515 (<= (+ ?x483 ?x487 S_5 ?x1080 S_0) (- 5.0))) $x519526 $x184375 $x506604 (or $x1086 $x4682 $x21952 $x25542) (or $x1086 $x4682 $x18647 $x21582 $x34811 $x40030) (or $x1086 $x1128 $x4100 $x9306 $x9703) (or $x56 (<= (+ ?x5828 ?x10638 ?x5330 ?x7571 ?x532 S_0 ?x5324) 0.0)) (or $x1086 $x21952 $x25542 $x208982) $x502701 (or $x56 $x1092 $x102056) $x517227 $x516936 (or $x66 $x214516 (<= (+ ?x10644 ?x487 A_1 ?x7571 ?x2952 ?x610) (- 5.0))) (or $x1086 (<= ?x3627 0.0) $x18647 $x34811 $x209344) (or $x1086 (<= (+ ?x15187 ?x19305 ?x1550 ?x17420 S_3 ?x1119 ?x1553) 0.0) $x21952) $x515542 $x518513 $x512772 $x501092 (or $x66 (<= (+ ?x479 ?x487 S_5 ?x1080 S_1) (- 5.0))) $x519694 $x512998 $x521282 $x192478 $x519212 $x518676 $x523052 $x506810 (or $x1086 $x9703 $x99232 $x209344 $x224688) (or $x66 $x95993 (<= 0.0 (+ ?x483 A_2 S_4 ?x532))) (or $x66 (<= (+ ?x475 A_3 ?x1105 S_5 S_1 ?x1080) (- 5.0))) (or $x66 (<= (+ ?x5531 ?x10638 ?x2958 ?x7571 S_1 ?x2952) (- 5.0))) (or $x66 $x66379 (<= (+ A_4 ?x475 ?x2409 ?x487 S_5 ?x25836 ?x2416) 0.0)) $x510522 $x514347 (or $x66 $x106714) $x506829 (or $x1086 (<= ?x3627 0.0) $x18647 $x34811 $x40030) $x510808 (or $x1086 $x9703 $x11283 $x99232 $x224688) $x505018 $x251449 $x39 (<= (+ ?x479 L_2 S_4) 0.0) (<= (+ ?x483 L_2 S_3) 0.0) (<= (+ ?x1142 S_0 L_0) 0.0) (<= (+ ?x487 L_2 S_2) 0.0)))))))))))))))))))))))))))))))))))))))))))))))))))))))))))))))))))))))))))))))))))))))))))))))))))))))))))))))))))))))))))))))))))))))))))))))))))))))))))))))))))))))))))))))))))))))))))))))))))))))))))))))))))))))))))))))))))))))))))))))))))))))))))))))))))))))))))))))))))))))))))))))))))))))))))))))))))))))))))))))))
(check-sat)
